p cnf 7230 17
1576 3890 3908 3930 3954 4607 0
-3908 -4607 0
-3930 -4607 0
-3954 -4607 0
4612 4613 0
3884 -4613 0
-3884 -4612 0
4610 4611 0
3882 -4611 0
-3882 -4610 0
4608 4609 0
3880 -4609 0
-3880 -4608 0
-3892 -4615 0
-1578 -4615 0
4606 4607 0
-4606 -4607 0
